(declare-fun var0 () String)
(assert (RegexIn var0 (RegexConcat (RegexPlus (RegexStar (Str2Reg "||"))) (RegexConcat (RegexPlus (RegexUnion (Str2Reg "```") (Str2Reg "{{{"))) (RegexConcat (RegexUnion (RegexStar (Str2Reg "^^")) (RegexStar (Str2Reg "__"))) (RegexConcat (RegexPlus (RegexStar (Str2Reg "]]"))) (RegexConcat (RegexUnion (RegexStar (Str2Reg "@@@")) (RegexUnion (Str2Reg "[") (Str2Reg "\\\\\\"))) (RegexConcat (RegexUnion (RegexUnion (Str2Reg "===") (Str2Reg ">>")) (RegexPlus (Str2Reg "???"))) (RegexConcat (RegexUnion (RegexUnion (Str2Reg "/") (Str2Reg ":::")) (RegexUnion (Str2Reg ";;;") (Str2Reg "<<"))) (RegexConcat (RegexStar (RegexStar (Str2Reg "..."))) (RegexConcat (RegexStar (RegexStar (Str2Reg "---"))) (RegexConcat (RegexStar (RegexStar (Str2Reg ",,"))) (RegexConcat (RegexPlus (RegexUnion (Str2Reg "***") (Str2Reg "++"))) (RegexConcat (RegexPlus (RegexPlus (Str2Reg ")"))) (RegexConcat (RegexStar (RegexPlus (Str2Reg "(("))) (RegexConcat (RegexPlus (RegexPlus (Str2Reg "'"))) (RegexConcat (RegexStar (RegexPlus (Str2Reg "&&"))) (RegexConcat (RegexStar (RegexUnion (Str2Reg "$") (Str2Reg "%%"))) (RegexConcat (RegexUnion (RegexUnion (Str2Reg "!") (Str2Reg "\"\"")) (RegexPlus (Str2Reg "##"))) (RegexConcat (RegexUnion (RegexStar (Str2Reg "XX")) (RegexUnion (Str2Reg "YY") (Str2Reg "ZZ"))) (RegexConcat (RegexPlus (RegexUnion (Str2Reg "VV") (Str2Reg "WW"))) (RegexConcat (RegexUnion (RegexStar (Str2Reg "SS")) (RegexUnion (Str2Reg "TTT") (Str2Reg "UU"))) (RegexConcat (RegexStar (RegexPlus (Str2Reg "RRR"))) (RegexConcat (RegexPlus (RegexUnion (Str2Reg "PPP") (Str2Reg "QQ"))) (RegexConcat (RegexUnion (RegexStar (Str2Reg "N")) (RegexPlus (Str2Reg "O"))) (RegexConcat (RegexUnion (RegexUnion (Str2Reg "KK") (Str2Reg "L")) (RegexStar (Str2Reg "M"))) (RegexConcat (RegexPlus (RegexPlus (Str2Reg "JJ"))) (RegexConcat (RegexStar (RegexUnion (Str2Reg "H") (Str2Reg "I"))) (RegexConcat (RegexStar (RegexStar (Str2Reg "GG"))) (RegexConcat (RegexUnion (RegexPlus (Str2Reg "D")) (RegexUnion (Str2Reg "E") (Str2Reg "FFF"))) (RegexConcat (RegexPlus (RegexStar (Str2Reg "CC"))) (RegexConcat (RegexPlus (RegexUnion (Str2Reg "AAA") (Str2Reg "BB"))) (RegexConcat (RegexPlus (RegexPlus (Str2Reg "zzz"))) (RegexConcat (RegexUnion (RegexStar (Str2Reg "www")) (RegexUnion (Str2Reg "xx") (Str2Reg "yy"))) (RegexConcat (RegexUnion (RegexPlus (Str2Reg "uuu")) (RegexStar (Str2Reg "vvv"))) (RegexConcat (RegexPlus (RegexStar (Str2Reg "ttt"))) (RegexConcat (RegexPlus (RegexUnion (Str2Reg "r") (Str2Reg "ss"))) (RegexConcat (RegexUnion (RegexStar (Str2Reg "ppp")) (RegexPlus (Str2Reg "qqq"))) (RegexConcat (RegexStar (RegexStar (Str2Reg "oo"))) (RegexConcat (RegexPlus (RegexUnion (Str2Reg "m") (Str2Reg "nnn"))) (RegexConcat (RegexUnion (RegexUnion (Str2Reg "jj") (Str2Reg "kk")) (RegexPlus (Str2Reg "l"))) (RegexConcat (RegexStar (RegexPlus (Str2Reg "i"))) (RegexConcat (RegexStar (RegexPlus (Str2Reg "hh"))) (RegexConcat (RegexPlus (RegexPlus (Str2Reg "ggg"))) (RegexConcat (RegexUnion (RegexStar (Str2Reg "ddd")) (RegexUnion (Str2Reg "ee") (Str2Reg "fff"))) (RegexConcat (RegexStar (RegexUnion (Str2Reg "b") (Str2Reg "cc"))) (RegexConcat (RegexUnion (RegexUnion (Str2Reg "8") (Str2Reg "9")) (RegexStar (Str2Reg "aa"))) (RegexConcat (RegexPlus (RegexPlus (Str2Reg "777"))) (RegexConcat (RegexPlus (RegexStar (Str2Reg "66"))) (RegexConcat (RegexStar (RegexUnion (Str2Reg "444") (Str2Reg "5"))) (RegexConcat (RegexPlus (RegexPlus (Str2Reg "33"))) (RegexConcat (RegexStar (RegexPlus (Str2Reg "22"))) (RegexPlus (RegexUnion (Str2Reg "0") (Str2Reg "11")))))))))))))))))))))))))))))))))))))))))))))))))))))))
(check-sat)